
  12    4
  10   10   10   10

   0   0   0   0   0   3 2 4 5 
   3  10  10  10  10   1 3 
   1  10  10  10  10   2 8 6 
   3  10  10  10  10   2 8 7 
   8  10  10  10  10   2 8 7 
   5  10  10  10  10   1 7 
   1  10  10  10  10   1 9 
   7  10  10  10  10   1 9 
   7  10  10  10  10   1 10 
   2  10  10  10  10   1 11 
   4  10  10  10  10   1 12
   0   0   0   0   0   0 
